<number of tasks>
50

<cycle time>
1000

<order strength>
0.2


<task times>
1 557
2 50
3 98
4 421
5 81
6 106
7 503
8 114
9 382
10 180
11 277
12 192
13 181
14 554
15 246
16 96
17 81
18 219
19 351
20 357
21 81
22 179
23 57
24 476
25 59
26 172
27 564
28 303
29 194
30 107
31 422
32 366
33 70
34 471
35 99
36 120
37 516
38 62
39 70
40 337
41 201
42 497
43 278
44 389
45 148
46 190
47 508
48 246
49 211
50 159

<precedence relations>
1,31
2,9
3,11
4,10
4,13
4,23
5,14
5,15
6,31
7,8
7,12
8,31
9,19
10,18
11,20
12,16
12,17
12,22
12,23
12,25
13,24
15,21
16,31
17,28
18,29
21,27
21,30
25,26
26,31
27,31
28,32
29,43
30,33
30,34
30,35
31,36
31,37
31,38
31,39
31,41
32,40
33,44
35,40
35,42
35,43
36,45
39,47
43,46
45,48
46,50
47,49

<end>
